%mem=3700MB
# BVWN/6-31g(d,p) scrf=cosmors 
Title

0 1
 C                 -1.29260300   -0.26100900    0.00000100
 C                  0.00000300    0.58641200    0.00000000
 H                 -2.18616900    0.37451700   -0.00018500
 H                 -1.34448000   -0.90756200    0.88498300
 H                 -1.34427400   -0.90778500   -0.88482900
 C                  1.29260000   -0.26101300   -0.00000500
 H                  0.00002300    1.24762100    0.87788900
 H                 -0.00000800    1.24770800   -0.87782500
 H                  1.34474400   -0.90711400    0.88529400
 H                  2.18616700    0.37451200   -0.00077800
 H                  1.34399200   -0.90823900   -0.88452100

propane.cosmo
 7
 8
 9
 10
 11

