%mem=3700MB
# SP 6-31g(d,p) bvwn SCF=(Tight) SCRF=(COSMORS,EPS=1000)

Title

0 1
6 -1.292603 -0.261009 0.000001
6 0.000003 0.586412 0.000000
1 -2.186169 0.374517 -0.000185
1 -1.344480 -0.907562 0.884983
1 -1.344274 -0.907785 -0.884829
6 1.292600 -0.261013 -0.000005
1 0.000023 1.247621 0.877889
1 -0.000008 1.247708 -0.877825
1 1.344744 -0.907114 0.885294
1 2.186167 0.374512 -0.000778
1 1.343992 -0.908239 -0.884521

propane.cosmo
